WARNING: for repeatability, setting FPU to use double precision
============================[ Problem Statistics ]=============================
|                                                                             |
|  Number of variables:        156626                                         |
|  Number of clauses:          633125                                         |
|  Parse time:                   0.13 s                                       |
|                                                                             |
============================[ Search Statistics ]==============================
| Conflicts |          ORIGINAL         |          LEARNT          | Progress |
|           |    Vars  Clauses Literals |    Limit  Clauses Lit/Cl |          |
===============================================================================
|       100 |  140613   556183  1411894 |   203933      100     14 | 10.224 % |
|       250 |  140613   556183  1411894 |   224327      250     10 | 10.224 % |
|       475 |  140613   556183  1411894 |   246759      475      8 | 10.224 % |
|       812 |  140613   556183  1411894 |   271435      812      8 | 10.224 % |
|      1318 |  140613   556183  1411894 |   298579     1318      8 | 10.224 % |
|      2077 |  140613   556183  1411894 |   328437     2077     11 | 10.224 % |
|      3216 |  140613   556183  1411894 |   361281     3216     11 | 10.224 % |
|      4924 |  140611   556171  1411870 |   397409     4922     11 | 10.225 % |
|      7486 |  140608   556127  1411782 |   437150     7481     12 | 10.227 % |
|     11330 |  140608   556127  1411782 |   480865    11325     13 | 10.227 % |
|     17096 |  140607   556114  1411756 |   528951    17089     14 | 10.228 % |
|     25745 |  140318   554538  1407833 |   581846    25736     15 | 10.412 % |
|     38719 |  140310   554453  1407663 |   640031    38702     18 | 10.417 % |
|     58180 |  139502   550967  1399083 |   704034    58005     19 | 10.933 % |
===============================================================================
restarts              : 253
conflicts             : 82878          (6755 /sec)
decisions             : 473336         (0.00 % random) (38577 /sec)
propagations          : 132948127      (10835218 /sec)
conflict literals     : 1679455        (25.22 % deleted)
Memory used           : 73.00 MB
CPU time              : 12.27 s

SATISFIABLE
